
Gurobi 8.0.1 (linux64, Python) logging started Wed Jan  9 14:33:18 2019


Gurobi 8.0.1 (linux64, Python) logging started Wed Jan  9 14:34:19 2019


Gurobi 8.0.1 (linux64, Python) logging started Wed Jan  9 14:37:33 2019


Gurobi 8.1.0 (linux64, Python) logging started Wed Jan  9 21:10:13 2019


Gurobi 8.1.0 (linux64, Python) logging started Wed Jan  9 21:11:27 2019


Gurobi 8.1.0 (linux64, Python) logging started Wed Jan  9 21:11:33 2019


Gurobi 8.1.0 (linux64, Python) logging started Thu Jan 10 09:43:23 2019


Gurobi 8.1.0 (linux64, Python) logging started Thu Jan 10 09:46:45 2019

Academic license - for non-commercial use only
Optimize a model with 4834 rows, 2948 columns and 15444 nonzeros
Coefficient statistics:
  Matrix range     [2e-02, 1e+00]
  Objective range  [1e+00, 1e+00]
  Bounds range     [0e+00, 0e+00]
  RHS range        [1e+02, 1e+04]
Presolve removed 1698 rows and 1490 columns
Presolve time: 0.02s
Presolved: 3136 rows, 1458 columns, 12877 nonzeros

Iteration    Objective       Primal Inf.    Dual Inf.      Time
       0      handle free variables                          0s
    2518    6.2338482e+06   0.000000e+00   0.000000e+00      0s

Solved in 2518 iterations and 0.15 seconds
Optimal objective  6.233848232e+06
Optimize a model with 4834 rows, 2948 columns and 15444 nonzeros
Coefficient statistics:
  Matrix range     [2e-02, 1e+00]
  Objective range  [1e+00, 1e+00]
  Bounds range     [0e+00, 0e+00]
  RHS range        [1e+02, 1e+04]
Presolve removed 1698 rows and 1490 columns
Presolve time: 0.01s
Presolved: 3136 rows, 1458 columns, 12877 nonzeros

Iteration    Objective       Primal Inf.    Dual Inf.      Time
       0      handle free variables                          0s
    2518    6.2338482e+06   0.000000e+00   0.000000e+00      0s

Solved in 2518 iterations and 0.15 seconds
Optimal objective  6.233848232e+06
Optimize a model with 4834 rows, 2948 columns and 15444 nonzeros
Coefficient statistics:
  Matrix range     [2e-02, 1e+00]
  Objective range  [1e+00, 1e+00]
  Bounds range     [0e+00, 0e+00]
  RHS range        [1e+02, 1e+04]
Presolve removed 1698 rows and 1490 columns
Presolve time: 0.01s
Presolved: 3136 rows, 1458 columns, 12877 nonzeros

Iteration    Objective       Primal Inf.    Dual Inf.      Time
       0      handle free variables                          0s
    2518    6.2338482e+06   0.000000e+00   0.000000e+00      0s

Solved in 2518 iterations and 0.15 seconds
Optimal objective  6.233848232e+06

Gurobi 8.1.0 (linux64, Python) logging started Thu Jan 10 09:48:49 2019

Academic license - for non-commercial use only
Optimize a model with 4834 rows, 2948 columns and 15444 nonzeros
Coefficient statistics:
  Matrix range     [2e-02, 1e+00]
  Objective range  [1e+00, 1e+00]
  Bounds range     [0e+00, 0e+00]
  RHS range        [1e+02, 1e+04]
Presolve removed 1698 rows and 1490 columns
Presolve time: 0.01s
Presolved: 3136 rows, 1458 columns, 12877 nonzeros

Iteration    Objective       Primal Inf.    Dual Inf.      Time
       0      handle free variables                          0s
    2518    6.2338482e+06   0.000000e+00   0.000000e+00      0s

Solved in 2518 iterations and 0.14 seconds
Optimal objective  6.233848232e+06
Optimize a model with 4834 rows, 2948 columns and 15444 nonzeros
Coefficient statistics:
  Matrix range     [2e-02, 1e+00]
  Objective range  [1e+00, 1e+00]
  Bounds range     [0e+00, 0e+00]
  RHS range        [1e+02, 1e+04]
Presolve removed 1698 rows and 1490 columns
Presolve time: 0.01s
Presolved: 3136 rows, 1458 columns, 12877 nonzeros

Iteration    Objective       Primal Inf.    Dual Inf.      Time
       0      handle free variables                          0s
    2518    6.2338482e+06   0.000000e+00   0.000000e+00      0s

Solved in 2518 iterations and 0.14 seconds
Optimal objective  6.233848232e+06

Gurobi 8.1.0 (linux64, Python) logging started Thu Jan 10 12:42:52 2019

Academic license - for non-commercial use only
Optimize a model with 4834 rows, 2948 columns and 15444 nonzeros
Coefficient statistics:
  Matrix range     [2e-02, 1e+00]
  Objective range  [1e+00, 1e+00]
  Bounds range     [0e+00, 0e+00]
  RHS range        [1e+02, 1e+04]
Presolve removed 1698 rows and 1490 columns
Presolve time: 0.02s
Presolved: 3136 rows, 1458 columns, 12877 nonzeros

Iteration    Objective       Primal Inf.    Dual Inf.      Time
       0      handle free variables                          0s
    2518    6.2338482e+06   0.000000e+00   0.000000e+00      0s

Solved in 2518 iterations and 0.15 seconds
Optimal objective  6.233848232e+06
Optimize a model with 4834 rows, 2948 columns and 15444 nonzeros
Coefficient statistics:
  Matrix range     [2e-02, 1e+00]
  Objective range  [1e+00, 1e+00]
  Bounds range     [0e+00, 0e+00]
  RHS range        [1e+02, 1e+04]
Presolve removed 1698 rows and 1490 columns
Presolve time: 0.01s
Presolved: 3136 rows, 1458 columns, 12877 nonzeros

Iteration    Objective       Primal Inf.    Dual Inf.      Time
       0      handle free variables                          0s
    2518    6.2338482e+06   0.000000e+00   0.000000e+00      0s

Solved in 2518 iterations and 0.15 seconds
Optimal objective  6.233848232e+06
